5 84 61 16 44 14 38 86 17 45 8 82 48 19 63 90 32 10 
94 95 97 92 37 98 100 91 85 93 59 99 96 6 
52 7 88 62 11 64 49 36 47 46 83 60 18 89 
53 40 2 57 73 21 72 22 41 23 56 75 74 15 43 42 87 13 58 
27 69 31 70 30 51 9 35 71 65 66 20 1 
50 33 81 34 78 79 3 77 76 28 
12 68 80 29 24 55 25 67 39 4 54 26 
